NAME : random_0
COMMENT : 30 random nodes
TYPE : TSP
DIMENSION : 30
EDGE_WEIGHT_TYPE : EUC_2D
NODE_COORD_SECTION
1 433 331
2 660 720
3 959 144
4 365 730
5 39 167
6 472 390
7 82 367
8 87 600
9 244 565
10 995 795
11 273 53
12 871 63
13 252 224
14 237 111
15 825 339
16 798 791
17 138 706
18 868 118
19 996 905
20 754 462
21 946 264
22 352 47
23 316 139
24 376 565
25 939 570
26 195 384
27 595 60
28 969 84
29 121 719
30 54 84
EOF